job_count = 30 ;
duration = [|4, 20, 3, 9, 14, 6|16, 6, 18, 2, 3, 4|23, 16, 5, 7, 15, 2|22, 7, 19, 2, 5, 10|19, 11, 10, 5, 6, 13|7, 10, 11, 8, 7, 8|18, 12, 4, 14, 11, 5|6, 4, 7, 11, 5, 13|12, 11, 2, 7, 13, 7|23, 13, 19, 10, 4, 4|15, 9, 4, 13, 16, 9|4, 12, 7, 4, 15, 8|7, 11, 15, 17, 12, 2|21, 20, 14, 4, 7, 11|14, 3, 10, 18, 4, 8|9, 9, 4, 9, 12, 8|17, 17, 20, 8, 5, 2|17, 15, 3, 2, 8, 10|17, 10, 19, 16, 9, 11|24, 10, 5, 12, 8, 4|4, 21, 4, 16, 5, 9|19, 2, 11, 18, 14, 5|4, 18, 10, 10, 16, 13|18, 14, 18, 12, 13, 7|24, 8, 11, 12, 15, 3|2, 14, 7, 11, 16, 14|13, 13, 6, 16, 11, 14|23, 10, 2, 15, 5, 14|18, 10, 13, 5, 15, 9|18, 13, 12, 4, 10, 3|] ;
machine_count = 6 ;
cost = [|26, 20, 28, 36, 27, 51|30, 29, 32, 31, 47, 34|16, 31, 20, 39, 36, 51|28, 21, 22, 26, 31, 34|27, 19, 27, 24, 26, 39|23, 26, 22, 24, 39, 45|16, 24, 34, 26, 35, 40|29, 26, 34, 38, 26, 49|18, 25, 36, 21, 39, 38|22, 24, 37, 34, 25, 35|27, 25, 30, 35, 34, 52|18, 33, 30, 28, 37, 28|24, 33, 25, 27, 36, 47|29, 20, 30, 32, 25, 42|20, 20, 28, 22, 42, 43|20, 22, 28, 33, 24, 53|27, 17, 35, 35, 47, 46|26, 32, 22, 27, 46, 37|23, 31, 34, 21, 28, 51|21, 25, 25, 31, 44, 44|28, 26, 31, 40, 33, 51|28, 17, 23, 38, 41, 41|22, 28, 33, 30, 40, 42|22, 17, 25, 37, 47, 39|26, 28, 33, 22, 40, 38|23, 19, 27, 41, 37, 51|23, 31, 26, 29, 43, 37|17, 20, 36, 21, 32, 39|19, 25, 31, 26, 38, 32|19, 29, 19, 37, 46, 43|] ;
deadline = [33, 33, 33, 33, 33, 33, 33, 33, 33, 33, 33, 33, 33, 33, 33, 33, 33, 33, 33, 33, 33, 33, 33, 33, 33, 33, 33, 33, 33, 33] ;
release = [0, 0, 0, 0, 0, 0, 0, 0, 0, 0, 0, 0, 0, 0, 0, 0, 0, 0, 0, 0, 0, 0, 0, 0, 0, 0, 0, 0, 0, 0] ;
resource = [|9, 9, 9, 9, 9, 9|9, 9, 9, 9, 9, 9|1, 1, 1, 1, 1, 1|2, 2, 2, 2, 2, 2|4, 4, 4, 4, 4, 4|9, 9, 9, 9, 9, 9|9, 9, 9, 9, 9, 9|2, 2, 2, 2, 2, 2|1, 1, 1, 1, 1, 1|1, 1, 1, 1, 1, 1|8, 8, 8, 8, 8, 8|1, 1, 1, 1, 1, 1|3, 3, 3, 3, 3, 3|8, 8, 8, 8, 8, 8|4, 4, 4, 4, 4, 4|3, 3, 3, 3, 3, 3|6, 6, 6, 6, 6, 6|7, 7, 7, 7, 7, 7|2, 2, 2, 2, 2, 2|2, 2, 2, 2, 2, 2|4, 4, 4, 4, 4, 4|1, 1, 1, 1, 1, 1|5, 5, 5, 5, 5, 5|2, 2, 2, 2, 2, 2|5, 5, 5, 5, 5, 5|3, 3, 3, 3, 3, 3|6, 6, 6, 6, 6, 6|4, 4, 4, 4, 4, 4|1, 1, 1, 1, 1, 1|6, 6, 6, 6, 6, 6|] ;
capacities = [10, 10, 10, 10, 10, 10] ;
